============================[ Problem Statistics ]=============================|                                                                             ||  Number of variables:          4242                                         ||  Number of clauses:           10222                                         ||  Parse time:                   0.61 s                                       ||                                                                             |============================[ Search Statistics ]==============================| Conflicts |          ORIGINAL         |          LEARNT          | Progress ||           |    Vars  Clauses Literals |    Limit  Clauses Lit/Cl |          |===============================================================================|       100 |    1591     6427   972758 |     2356      100     53 | 62.501 % ||       250 |    1591     6427   972758 |     2592      250     75 | 62.495 % |===============================================================================restarts              : 3conflicts             : 335            (362 /sec)decisions             : 598            (0.00 % random) (646 /sec)propagations          : 11922          (12889 /sec)conflict literals     : 26993          (94.66 % deleted)CPU time              : 0.925 sSATISFIABLE